22990.02 0
36 45 46 30 94 82 49 23 6 85 59 63 18 52 22 8 90 38 70 72 19 25 40 43 44 35 99 84 17 79 51 11 32 21 20 54 92 5 87 88 77 37 47 7 83 39 74 66 57 71 24 3 55 96 80 16 4 91 69 13 28 62 64 76 14 29 26 9 53 42 61 89 34 50 2 95 73 81 10 75 56 31 27 58 86 78 67 98 65 0 12 93 15 68 48 41 97 33 60 1